1751.0 21644.0 
1734.0 21691.0 
1628.0 22442.0 
1617.0 22447.0 
1628.0 22442.0 
1654.0 22437.0 
1757.0 21635.0 
1681.0 21744.0 
1655.0 22243.0 
1719.0 21714.0 
1668.0 22170.0 
1617.0 22447.0 
1671.0 21974.0 
1617.0 22447.0 
1647.0 22441.0 
1757.0 21635.0 
